# Solution for model r10_t18_m1_1
# Finished Task: 18 / 18
# Makespan: 418.0, Total Distance: 1174.0, Total Time: 0.0796
# R O S F
0 0 15 0.0 0.0
1 1 17 0.0 0.0
2 2 11 0.0 0.0
3 3 13 0.0 0.0
4 4 21 0.0 0.0
5 5 22 0.0 0.0
6 6 24 0.0 0.0
7 7 23 0.0 0.0
8 8 25 0.0 0.0
9 9 27 0.0 0.0
10 7 -1 278.0 317.0
11 2 16 40.0 77.0
12 2 -1 357.0 396.0
13 3 18 79.0 117.0
14 0 -1 294.0 330.0
15 0 14 247.0 278.0
16 2 12 278.0 311.0
17 1 -1 326.0 357.0
18 3 19 224.0 259.0
19 3 -1 396.0 418.0
20 9 -1 268.0 288.0
21 4 -1 251.0 283.0
22 5 -1 325.0 361.0
23 7 10 154.0 177.0
24 6 26 122.0 159.0
25 8 -1 204.0 243.0
26 6 -1 229.0 258.0
27 9 20 182.0 217.0
